Route 1: 0 70 54 59 68 35 50 43 0
Route 2: 0 94 67 30 45 39 13 2 83 89 0
Route 3: 0 42 85 76 74 96 19 18 66 0
Route 4: 0 69 52 98 61 20 26 87 5 44 0
Route 5: 0 48 4 65 86 41 22 0
Route 6: 0 33 75 56 6 95 80 72 17 7 62 84 53 0
Route 7: 0 60 100 40 46 49 88 8 0
Route 8: 0 55 63 32 58 12 25 0
Route 9: 0 28 99 10 38 64 36 24 16 11 73 37 0
Route 10: 0 34 9 71 47 3 92 27 23 0
Route 11: 0 93 97 15 31 90 29 91 0
Route 12: 0 77 81 21 78 79 1 14 82 51 57 0
